Argumentos: 
./solver.release -i 6 -t 86400 -a 7 -h 86400 -w Testes/Marcos-i6 -m modelo.mod -o modelo.mod 
Seed: 1622589650
hidden-TXT/Sc-n035w4.txt
hidden-TXT/H0-n035w4-1.txt
hidden-TXT/WD-n035w4-0.txt hidden-TXT/WD-n035w4-6.txt hidden-TXT/WD-n035w4-9.txt hidden-TXT/WD-n035w4-2.txt 
Reading model section from modelo.mod...
285 lines were read
Reading data section from Testes/Marcos-i6/6.dat...
7248 lines were read
Generating obj...
Generating H1turnoDia...
Generating H2coberturaMinima...
Generating H3AsucessaoTurnos...
Generating H3BsucessaoTurnos...
Generating H4qualificacao...
Generating S1coberturaOtima...
Generating S2aux1...
Generating S2aux2...
Generating S2aux3...
Generating S2aux7...
Generating S2a...
Generating S2S3aux4...
Generating S2S3aux5...
Generating S2S3aux6...
Generating S2S3aux8...
Generating S2c...
Generating S2chist...
Generating S2d...
Generating S2dHist...
Generating S2b...
Generating S2bHist...
Generating auxS5...
Generating S6a...
Generating S6b...
Generating auxS7...
Generating S7...
Model has been successfully generated
Writing problem data to `Testes/Marcos-i6/6.lp'...
2991597 lines were written
CPX0000  Tried aggregator 2 times.
CPX0000  Aggregator has done 8648 substitutions...
CPX0000  MIP Presolve eliminated 84917 rows and 92100 columns.
CPX0000  MIP Presolve modified 1963 coefficients.
CPX0000  Aggregator did 8648 substitutions.
CPX0000  Reduced MIP has 1012517 rows, 96395 columns, and 3389878 nonzeros.
CPX0000  Reduced MIP has 96160 binaries, 235 generals, 0 SOSs, and 0 indicators.
CPX0000  Presolve time = 14.22 sec. (10484.10 ticks)
CPX0000  Probing time = 0.27 sec. (66.60 ticks)
CPX0000  Tried aggregator 1 time.
CPX0000  MIP Presolve eliminated 15 rows and 15 columns.
CPX0000  MIP Presolve modified 116 coefficients.
CPX0000  Reduced MIP has 1012502 rows, 96380 columns, and 3389775 nonzeros.
CPX0000  Reduced MIP has 96160 binaries, 220 generals, 0 SOSs, and 0 indicators.
CPX0000  Presolve time = 8.90 sec. (5680.88 ticks)
CPX0000  Probing time = 0.24 sec. (65.20 ticks)
CPX0000  Clique table members: 798668.
CPX0000  MIP emphasis: balance optimality and feasibility.
CPX0000  MIP search method: dynamic search.
CPX0000  Parallel mode: none, using 1 thread.
CPX0000  Root relaxation solution time = 60110.49 sec. (15635088.87 ticks)
CPX0000
CPX0000          Nodes                                         Cuts/
CPX0000     Node  Left     Objective  IInf  Best Integer    Best Bound    ItCnt     Gap
CPX0000
CPX0000        0     0       90.3275 17333                     90.3275  5858102
CPX0000
CPX0000  GUB cover cuts applied:  142
CPX0000  Clique cuts applied:  97
CPX0000  Cover cuts applied:  83
CPX0000  Flow cuts applied:  13
CPX0000  Mixed integer rounding cuts applied:  241
CPX0000  Zero-half cuts applied:  212
CPX0000  Lift and project cuts applied:  2
CPX0000  Gomory fractional cuts applied:  8
CPX0000
CPX0000  Root node processing (before b&c):
CPX0000    Real time             = 86401.14 sec. (17716116.81 ticks)
CPX0000  Sequential b&c:
CPX0000    Real time             =    0.00 sec. (0.00 ticks)
CPX0000                            ------------
CPX0000  Total (root+branch&cut) = 86401.14 sec. (17716116.81 ticks)
H2 understaffing: 347
H3 shiftTypeSuccessions: 6
S1 optimalCoverage: 720
S2a consecutiveShift: 12255 = (6,811 )
S2b consecutiveWorkingDays: 25380 = ( 0,846 )
S3 consecutiveDaysOff: 150 = ( 5,0 )
S4 preferences: 500
S5 completeWeekend: 0
S6 totalAssignments: 9100
S7 totalWorkingWeekeends: 2520
 

Cost Solution: 403625

File "Solucao/n035w4-1-0-6-9-2_w0.txt", unknown skill: HN_0 for nurse HN_0 on day Monday for shift type Early

     Syntax:
     java -jar validator.jar --sce scenario --his history --weeks week_1...week_n --sols sol_1...sol_n [--penaltyonly] [--out outFile] [--verbose]

          scenario           the file containing the scenario
          history            the file containing the initial history
          week_1...week_n    the files containing the week data
          sol_1...sol_n      the files containing the solutions for the weeks
          --penaltyonly      option to print only the penalty value
          --out outfile      option: print output to outfile
          --verbose          option: prints a detailed report of violations per nurse
